(set-logic HORN)
(declare-fun partial_array_argmin@summary ((Array Int Int) Int Int Int Int ) Bool)
(declare-fun partial_array_argmin@pre ((Array Int Int) Int Int Int ) Bool)
(declare-fun !inv0 ((Array Int Int) Int Int Int Int Int ) Bool)
(declare-fun !inv1 (Int (Array Int Int) Int ) Bool)
(assert (forall ((array@0 (Array Int Int))(.array!size@0 Int)(start@0 Int)(end@0 Int)(i@0 Int)(argmin@0 Int)) (=> (and (partial_array_argmin@pre |array@0| |.array!size@0| |start@0| |end@0|) (= |i@0| |start@0|) (= |argmin@0| |start@0|)) (!inv0 |array@0| |.array!size@0| |start@0| |end@0| |i@0| |argmin@0|))))
(assert (forall ((N@0 Int)(array@0 (Array Int Int))(i@0 Int)) (=> (and (< |i@0| (- |N@0| 1)) (!inv1 |N@0| |array@0| |i@0|)) (partial_array_argmin@pre |array@0| |N@0| |i@0| |N@0|))))
(assert (forall ((array@0 (Array Int Int))(.array!size@0 Int)(start@0 Int)(end@0 Int)(i@0 Int)(argmin@0 Int)(!return@0 Int)) (=> (and (!inv0 |array@0| |.array!size@0| |start@0| |end@0| |i@0| |argmin@0|) (not (< |i@0| |end@0|)) (= |!return@0| |argmin@0|)) (partial_array_argmin@summary |array@0| |.array!size@0| |start@0| |end@0| |!return@0|))))
(assert (forall ((N@0 Int)(array@0 (Array Int Int))(i@0 Int)) (=> (and (> |N@0| 0) (= |i@0| 0)) (!inv1 |N@0| |array@0| |i@0|))))
(assert (forall ((N@0 Int)(array@0 (Array Int Int))(i@0 Int)) (=> (and (!inv1 |N@0| |array@0| |i@0|) (not (< |i@0| (- |N@0| 1))) (not (forall ((k@0 Int)(l@0 Int)) (=> (and (<= 0 |k@0|) (< |k@0| (- |N@0| 1))) (=> (and (<= (+ |k@0| 1) |l@0|) (< |l@0| |N@0|)) (<= (select |array@0| |k@0|) (select |array@0| |l@0|))))))) false)))
(assert (forall ((!rtrnd0 Int)(N@0 Int)(array@0 (Array Int Int))(i@0 Int)(jmin@0 Int)(i@1 Int)) (=> (and (partial_array_argmin@summary |array@0| |N@0| |i@0| |N@0| !rtrnd0) (partial_array_argmin@pre |array@0| |N@0| |i@0| |N@0|) (!inv1 |N@0| |array@0| |i@0|) (= |i@1| (+ |i@0| 1)) (< |i@0| (- |N@0| 1)) (= |jmin@0| !rtrnd0) (not (not (= |jmin@0| |i@0|)))) (!inv1 |N@0| |array@0| |i@1|))))
(assert (forall ((array@0 (Array Int Int))(.array!size@0 Int)(start@0 Int)(end@0 Int)(i@0 Int)(argmin@0 Int)(i@1 Int)) (=> (and (!inv0 |array@0| |.array!size@0| |start@0| |end@0| |i@0| |argmin@0|) (= |i@1| (+ |i@0| 1)) (< |i@0| |end@0|) (not (< (select |array@0| |i@0|) (select |array@0| |argmin@0|)))) (!inv0 |array@0| |.array!size@0| |start@0| |end@0| |i@1| |argmin@0|))))
(assert (forall ((!rtrnd0 Int)(N@0 Int)(array@0 (Array Int Int))(i@0 Int)(jmin@0 Int)(i@1 Int)(array@2 (Array Int Int))(tmp@0 Int)(array@1 (Array Int Int))) (=> (and (partial_array_argmin@summary |array@1| |N@0| |i@0| |N@0| !rtrnd0) (partial_array_argmin@pre |array@1| |N@0| |i@0| |N@0|) (!inv1 |N@0| |array@1| |i@0|) (= |i@1| (+ |i@0| 1)) (< |i@0| (- |N@0| 1)) (= |jmin@0| !rtrnd0) (not (= |jmin@0| |i@0|)) (= |tmp@0| (select |array@1| |jmin@0|)) (= |array@2| (store |array@1| |jmin@0| (select |array@1| |i@0|))) (= |array@0| (store |array@2| |i@0| |tmp@0|))) (!inv1 |N@0| |array@0| |i@1|))))
(assert (forall ((array@0 (Array Int Int))(.array!size@0 Int)(start@0 Int)(end@0 Int)(i@0 Int)(argmin@0 Int)(i@1 Int)(argmin@1 Int)) (=> (and (!inv0 |array@0| |.array!size@0| |start@0| |end@0| |i@0| |argmin@1|) (= |i@1| (+ |i@0| 1)) (< |i@0| |end@0|) (< (select |array@0| |i@0|) (select |array@0| |argmin@1|)) (= |argmin@0| |i@0|)) (!inv0 |array@0| |.array!size@0| |start@0| |end@0| |i@1| |argmin@0|))))
(check-sat)